NAME : XML100_3166_08
DIMENSION : 101
NB_CLUSTERS : 26
CLUSTERING_ALG : DBSCAN
CLUSTERING_PARAMS : eps(63), minSamples(3)
CLUSTERS
1 0
2 2 5 6 8 34 42 59 67 73
3 11 12 54 97
4 13 26 33 71 85
5 14 28 31 43 95
6 16 44 52 68 89
7 18 38 75
8 20 51 69 84 87
9 1 22 45 88 91 99
10 29 53 65 76 98
11 4 7 48 66 79
12 10 30 57 72 74 81 93
13 36 58 60 64 86 100
14 47 90
15 39 41
16 3 17 46
17 61 62
18 32 50 80
19 27 35
20 15 40 63 92
21 23 25 37 82 96
22 56 77 78
23 24 94
24 9 55 83
25 21 49
26 19 70
EOF